c prefix_class = Pi_4
c num_vars = 10
c num_clauses = 30
c clause_len = 5
c num_blocks = 4
c block_sizes[0] = 3
c block_sizes[1] = 3
c block_sizes[2] = 2
c block_sizes[3] = 2
p cnf 10 30
a 1 2 3 0
e 4 5 6 0
a 7 8 0
e 9 10 0
2 4 -5 -8 10 0
-1 4 5 -7 10 0
-1 5 6 -7 10 0
-3 4 5 -7 -9 0
3 -5 -6 8 9 0
2 -4 -5 -8 10 0
-1 -4 6 -7 10 0
-1 -4 -5 -8 -10 0
2 4 5 8 -10 0
2 4 6 -8 9 0
-3 -4 -6 7 -9 0
1 -4 6 -8 -10 0
2 -4 6 8 -10 0
-3 -4 -6 -8 9 0
2 -4 6 -7 -9 0
-1 5 6 -8 10 0
-1 -4 -5 8 10 0
-1 -4 5 -7 -10 0
-3 4 5 -8 -9 0
-3 4 5 -8 9 0
-1 -5 6 -7 -10 0
-1 -5 6 -7 -9 0
3 4 6 -8 -9 0
-3 -4 6 -8 10 0
1 4 -6 -7 10 0
3 -5 6 7 -9 0
2 -4 6 -8 -10 0
3 5 -6 7 9 0
-3 4 -6 7 10 0
-2 5 6 7 -9 0